NAME: rand_1/map5_180
TYPE: TSP
COMMENT: autogenerated using a wonderful map creator
DIMENSION: 210
EDGE_WEIGHT_TYPE: EUC_2D
NODE_COORD_SECTION
1 63.0 17.0
2 47.0 62.0
3 63.0 31.0
4 34.0 62.0
5 2.0 15.0
6 62.0 23.0
7 62.0 11.0
8 40.0 3.0
9 63.0 29.0
10 38.0 61.0
11 61.0 20.0
12 37.0 3.0
13 62.0 19.0
14 61.0 18.0
15 63.0 21.0
16 1.0 17.0
17 35.0 62.0
18 36.0 63.0
19 1.0 13.0
20 2.0 14.0
21 62.0 25.0
22 2.0 11.0
23 63.0 20.0
24 2.0 19.0
25 62.0 13.0
26 41.0 2.0
27 42.0 62.0
28 62.0 16.0
29 2.0 12.0
30 2.0 13.0
31 61.0 22.0
32 34.0 63.0
33 62.0 31.0
34 46.0 61.0
35 42.0 2.0
36 1.0 11.0
37 35.0 61.0
38 44.0 62.0
39 63.0 16.0
40 38.0 4.0
41 1.0 18.0
42 38.0 62.0
43 37.0 61.0
44 63.0 24.0
45 41.0 62.0
46 61.0 27.0
47 39.0 63.0
48 39.0 1.0
49 61.0 16.0
50 40.0 62.0
51 44.0 63.0
52 41.0 3.0
53 42.0 63.0
54 35.0 63.0
55 36.0 3.0
56 43.0 2.0
57 61.0 28.0
58 45.0 61.0
59 62.0 27.0
60 32.0 2.0
61 52.0 40.0
62 18.0 17.0
63 47.0 53.0
64 35.0 42.0
65 50.0 6.0
66 34.0 28.0
67 34.0 37.0
68 23.0 34.0
69 17.0 30.0
70 50.0 27.0
71 22.0 53.0
72 14.0 49.0
73 58.0 49.0
74 60.0 46.0
75 18.0 10.0
76 50.0 45.0
77 16.0 22.0
78 8.0 48.0
79 55.0 22.0
80 31.0 31.0
81 58.0 15.0
82 48.0 47.0
83 23.0 27.0
84 11.0 62.0
85 55.0 43.0
86 14.0 51.0
87 55.0 52.0
88 36.0 48.0
89 1.0 26.0
90 7.0 12.0
91 47.0 48.0
92 54.0 8.0
93 45.0 5.0
94 8.0 50.0
95 31.0 15.0
96 2.0 43.0
97 36.0 20.0
98 31.0 33.0
99 17.0 16.0
100 50.0 13.0
101 20.0 42.0
102 20.0 51.0
103 49.0 11.0
104 16.0 8.0
105 33.0 24.0
106 22.0 5.0
107 40.0 20.0
108 58.0 10.0
109 38.0 41.0
110 48.0 51.0
111 14.0 28.0
112 43.0 9.0
113 32.0 9.0
114 33.0 8.0
115 35.0 5.0
116 29.0 56.0
117 16.0 1.0
118 36.0 34.0
119 19.0 27.0
120 30.0 27.0
121 62.0 7.0
122 41.0 39.0
123 18.0 16.0
124 7.0 16.0
125 28.0 57.0
126 5.0 55.0
127 57.0 38.0
128 28.0 11.0
129 12.0 24.0
130 2.0 56.0
131 15.0 41.0
132 26.0 50.0
133 6.0 47.0
134 43.0 19.0
135 36.0 27.0
136 6.0 1.0
137 18.0 55.0
138 59.0 38.0
139 59.0 47.0
140 24.0 25.0
141 11.0 25.0
142 30.0 38.0
143 16.0 21.0
144 48.0 19.0
145 39.0 16.0
146 57.0 40.0
147 31.0 21.0
148 52.0 53.0
149 63.0 35.0
150 24.0 55.0
151 26.0 52.0
152 27.0 17.0
153 6.0 58.0
154 44.0 21.0
155 45.0 50.0
156 31.0 60.0
157 31.0 5.0
158 14.0 62.0
159 29.0 26.0
160 5.0 4.0
161 12.0 19.0
162 57.0 51.0
163 24.0 48.0
164 50.0 12.0
165 43.0 6.0
166 35.0 57.0
167 16.0 53.0
168 52.0 27.0
169 18.0 59.0
170 14.0 46.0
171 10.0 39.0
172 47.0 58.0
173 51.0 3.0
174 6.0 35.0
175 12.0 21.0
176 53.0 22.0
177 36.0 24.0
178 2.0 1.0
179 56.0 36.0
180 51.0 24.0
181 27.0 39.0
182 48.0 16.0
183 2.0 28.0
184 60.0 45.0
185 14.0 57.0
186 23.0 5.0
187 7.0 18.0
188 55.0 12.0
189 21.0 26.0
190 42.0 58.0
191 10.0 53.0
192 52.0 13.0
193 34.0 29.0
194 50.0 25.0
195 5.0 20.0
196 11.0 15.0
197 28.0 31.0
198 18.0 63.0
199 48.0 9.0
200 37.0 43.0
201 49.0 8.0
202 29.0 5.0
203 51.0 35.0
204 12.0 7.0
205 29.0 23.0
206 31.0 20.0
207 21.0 19.0
208 21.0 28.0
209 22.0 29.0
210 5.0 31.0
211 54.0 61.0
212 49.0 10.0
213 37.0 54.0
214 33.0 32.0
215 12.0 9.0
216 33.0 50.0
217 53.0 28.0
218 16.0 43.0
219 32.0 8.0
220 46.0 7.0
221 51.0 21.0
222 12.0 39.0
223 15.0 1.0
224 22.0 49.0
225 21.0 51.0
226 9.0 31.0
227 37.0 47.0
228 23.0 48.0
229 12.0 57.0
230 14.0 63.0
231 16.0 27.0
232 4.0 7.0
233 7.0 24.0
234 15.0 37.0
235 7.0 33.0
236 13.0 49.0
237 28.0 10.0
238 1.0 56.0
239 52.0 22.0
240 32.0 19.0
START_DEPOT_SECTION
1
2
3
4
5
6
7
8
9
10
11
12
13
14
15
16
17
18
19
20
21
22
23
24
25
26
27
28
29
30
-1
END_DEPOT_SECTION
31
32
33
34
35
36
37
38
39
40
41
42
43
44
45
46
47
48
49
50
51
52
53
54
55
56
57
58
59
60
-1
EOF
